
Gurobi 11.0.3 (linux64) logging started Sun Jun  1 10:40:58 2025

Set parameter LogFile to value "/home/yihong/Coding/SFLA+ED/PD_results_bigM100000_thread4/case24_ieee_rts_theta0.25_epsilon0.03_gurobi_seed70000_num_gen38_N_WDR80_load_scaling_factor1_CVAR_T14.txt"
Set parameter TimeLimit to value 3600
Gurobi Optimizer version 11.0.3 build v11.0.3rc0 (linux64 - "Ubuntu 20.04.6 LTS")

CPU model: AMD EPYC 7532 32-Core Processor, instruction set [SSE2|AVX|AVX2]
Thread count: 64 physical cores, 128 logical processors, using up to 4 threads

Optimize a model with 213892 rows, 1145 columns and 10704848 nonzeros
Model fingerprint: 0xe5333a60
Model has 532 quadratic objective terms
Coefficient statistics:
  Matrix range     [4e-07, 7e+01]
  Objective range  [2e+01, 6e+01]
  QObjective range [5e-03, 2e-02]
  Bounds range     [0e+00, 0e+00]
  RHS range        [3e-02, 9e+02]
Presolve removed 57372 rows and 0 columns
Presolve time: 2.54s
Presolved: 156520 rows, 1145 columns, 5515636 nonzeros
Presolved model has 532 quadratic objective terms
Ordering time: 0.92s

Barrier statistics:
 Dense cols : 1089
 Free vars  : 532
 AA' NZ     : 5.881e+06
 Factor NZ  : 7.770e+06 (roughly 130 MB of memory)
 Factor Ops : 1.109e+09 (less than 1 second per iteration)
 Threads    : 4

                  Objective                Residual
Iter       Primal          Dual         Primal    Dual     Compl     Time
   0   3.28627298e+08 -1.60434629e+08  3.60e+04 9.98e+02  9.70e+05   105s
   1   1.80504274e+08  4.02709356e+08  2.37e+04 6.56e+02  6.44e+05   106s
   2   1.75870673e+08 -1.46683307e+09  2.32e+04 6.44e+02  6.38e+05   106s
   3   1.25989433e+08 -1.49829455e+09  1.81e+04 5.02e+02  5.22e+05   106s
   4   1.20080624e+07 -5.49966480e+09  2.32e+03 6.45e+01  1.19e+05   106s
   5   4.90314228e+06 -3.26525437e+09  9.36e+02 2.60e+01  5.24e+04   106s
   6   2.20502127e+06 -1.74095732e+09  3.82e+02 1.06e+01  2.32e+04   106s
   7   4.51706134e+05 -4.01753974e+08  1.40e+01 3.88e-01  2.92e+03   106s
   8   4.27124028e+05 -3.06619849e+08  8.76e+00 2.43e-01  2.13e+03   107s
   9   4.09979848e+05 -2.09785783e+08  5.11e+00 1.42e-01  1.41e+03   107s
  10   4.00321380e+05 -1.30606938e+08  3.07e+00 8.51e-02  8.64e+02   107s
  11   3.98147481e+05 -1.11649305e+08  2.61e+00 7.23e-02  7.36e+02   107s
  12   3.95978431e+05 -9.92481035e+07  2.15e+00 5.95e-02  6.57e+02   107s
  13   3.94308188e+05 -8.87664624e+07  1.79e+00 4.97e-02  5.88e+02   107s
  14   3.92569995e+05 -7.63122622e+07  1.42e+00 3.95e-02  5.06e+02   107s
  15   3.90928881e+05 -6.36043310e+07  1.07e+00 2.96e-02  4.22e+02   108s
  16   3.88606598e+05 -4.72087752e+07  5.64e-01 1.56e-02  3.11e+02   108s
  17   3.86714018e+05 -1.75775794e+07  1.70e-01 4.72e-03  1.16e+02   108s
  18   3.85684654e+05 -5.08433324e+06  4.84e-03 1.34e-04  3.47e+01   108s
  19   3.84065692e+05  2.91383810e+04  2.97e-04 8.23e-06  2.25e+00   108s
  20   3.75829867e+05  1.24234547e+05  1.46e-04 4.06e-06  1.60e+00   108s
  21   3.73511733e+05  1.58772008e+05  1.11e-04 3.07e-06  1.36e+00   109s
  22   3.69427527e+05  2.39058636e+05  6.58e-05 1.82e-06  8.27e-01   109s
  23   3.65977671e+05  2.65937029e+05  4.18e-05 1.16e-06  6.35e-01   109s
  24   3.62071932e+05  2.81262316e+05  1.41e-05 1.04e-06  5.13e-01   109s
  25   3.60005172e+05  2.95687050e+05  2.82e-06 6.33e-07  4.08e-01   109s
  26   3.57880478e+05  3.13584961e+05  1.19e-06 6.29e-07  2.81e-01   109s
  27   3.56370468e+05  3.25528681e+05  5.40e-07 6.69e-07  1.96e-01   110s
  28   3.55772031e+05  3.30554770e+05  3.81e-07 2.75e-07  1.60e-01   110s
  29   3.54781109e+05  3.37731285e+05  2.03e-07 2.09e-07  1.08e-01   110s
  30   3.53814517e+05  3.44082445e+05  7.98e-08 1.43e-07  6.17e-02   110s
  31   3.53278827e+05  3.46925754e+05  3.85e-08 1.10e-07  4.03e-02   110s
  32   3.53138655e+05  3.47671810e+05  2.91e-08 8.33e-08  3.47e-02   110s
  33   3.52974310e+05  3.48502113e+05  2.20e-08 8.49e-08  2.84e-02   111s
  34   3.52880664e+05  3.49059488e+05  9.86e-09 3.81e-08  2.42e-02   111s
  35   3.52589131e+05  3.50393690e+05  3.38e-09 1.95e-08  1.39e-02   111s
  36   3.52560617e+05  3.50541294e+05  2.10e-09 1.22e-08  1.28e-02   111s
  37   3.52448107e+05  3.51037529e+05  1.15e-09 6.66e-09  8.95e-03   112s
  38   3.52354149e+05  3.51442081e+05  4.30e-10 2.49e-09  5.79e-03   112s
  39   3.52297199e+05  3.51682133e+05  2.49e-10 1.78e-09  3.90e-03   112s
  40   3.52232102e+05  3.51951396e+05  8.07e-11 6.58e-10  1.78e-03   112s
  41   3.52198233e+05  3.52088057e+05  2.00e-12 1.40e-11  6.99e-04   113s
  42   3.52188409e+05  3.52126781e+05  1.01e-12 2.41e-11  3.91e-04   113s
  43   3.52182381e+05  3.52150687e+05  2.70e-13 1.46e-11  2.01e-04   113s
  44   3.52176586e+05  3.52173447e+05  3.73e-14 1.26e-10  1.99e-05   113s
  45   3.52176007e+05  3.52175693e+05  2.84e-14 1.55e-11  1.99e-06   114s
  46   3.52175943e+05  3.52175943e+05  2.98e-11 2.13e-09  2.08e-09   114s

Barrier solved model in 46 iterations and 113.76 seconds (128.13 work units)
Optimal objective 3.52175943e+05

